(set-logic QF_S)
(declare-fun var0 () String)
(declare-fun var1 () String)
(declare-fun var2 () String)
(declare-fun var3 () String)
(declare-fun var4 () String)
(declare-fun var5 () String)
(declare-fun var6 () String)
(declare-fun var7 () String)
(declare-fun var8 () String)
(declare-fun var9 () String)
(declare-fun var10 () String)
(declare-fun var11 () String)
(declare-fun var12 () String)
(declare-fun var13 () String)
(declare-fun var14 () String)
(declare-fun var15 () String)
(declare-fun var16 () String)
(declare-fun var17 () String)
(declare-fun var18 () String)
(declare-fun var19 () String)
(declare-fun var20 () String)
(declare-fun var21 () String)
(declare-fun var22 () String)
(declare-fun var23 () String)
(declare-fun var24 () String)
(declare-fun var25 () String)
(declare-fun var26 () String)
(declare-fun var27 () String)
(declare-fun var28 () String)
(declare-fun var29 () String)
(declare-fun var30 () String)
(declare-fun var31 () String)
(declare-fun var32 () String)
(declare-fun var33 () String)
(declare-fun var34 () String)
(declare-fun var35 () String)
(declare-fun var36 () String)
(declare-fun var37 () String)
(declare-fun var38 () String)
(declare-fun var39 () String)
(declare-fun var40 () String)
(declare-fun var41 () String)
(declare-fun var42 () String)
(declare-fun var43 () String)
(declare-fun var44 () String)
(declare-fun var45 () String)
(declare-fun var46 () String)
(declare-fun var47 () String)
(declare-fun var48 () String)
(declare-fun var49 () String)
(declare-fun var50 () String)
(declare-fun var51 () String)
(declare-fun var52 () String)
(declare-fun var53 () String)
(declare-fun var54 () String)
(declare-fun var55 () String)
(declare-fun var56 () String)
(declare-fun var57 () String)
(declare-fun var58 () String)
(declare-fun var59 () String)
(declare-fun var60 () String)
(assert (= var0 (Concat var1 var2)))
(assert (= var2 (Concat var3 var4)))
(assert (= var4 (Concat var5 var6)))
(assert (= var6 (Concat var7 var8)))
(assert (= var8 (Concat var9 var10)))
(assert (= var10 (Concat var11 var12)))
(assert (= var12 (Concat var13 var14)))
(assert (= var14 (Concat var15 var16)))
(assert (= var16 (Concat var17 var18)))
(assert (= var18 (Concat var19 var20)))
(assert (= var20 (Concat var21 var22)))
(assert (= var22 (Concat var23 var24)))
(assert (= var24 (Concat var25 var26)))
(assert (= var26 (Concat var27 var28)))
(assert (= var28 (Concat var29 var30)))
(assert (= var30 (Concat var31 var32)))
(assert (= var32 (Concat var33 var34)))
(assert (= var34 (Concat var35 var36)))
(assert (= var36 (Concat var37 var38)))
(assert (= var38 (Concat var39 var40)))
(assert (= var40 (Concat var41 var42)))
(assert (= var42 (Concat var43 var44)))
(assert (= var44 (Concat var45 var46)))
(assert (= var46 (Concat var47 var48)))
(assert (= var48 (Concat var49 var50)))
(assert (= var50 (Concat var51 var52)))
(assert (= var52 (Concat var53 var54)))
(assert (= var54 (Concat var55 var56)))
(assert (= var56 (Concat var57 var58)))
(assert (= var58 (Concat var59 var60)))
(assert (= var0 "solution"))
(assert (= "q" (CharAt var20 405)))
(assert (= "W" (CharAt var48 322)))
(assert (= "-" (CharAt var49 968)))
(assert (= "~" (CharAt var1 931)))
(assert (= "n" (CharAt var57 796)))
(assert (= "q" (CharAt var58 15)))
(assert (= "g" (CharAt var29 201)))
(assert (= ";" (CharAt var4 647)))
(assert (= "*" (CharAt var0 427)))
(assert (= "I" (CharAt var52 523)))
(assert (= "6" (CharAt var27 588)))
(assert (= "." (CharAt var49 969)))
(assert (= "s" (CharAt var49 888)))
(assert (= ";" (CharAt var26 804)))
(assert (= ";" (CharAt var39 161)))
(assert (= "z" (CharAt var54 81)))
(assert (= "C" (CharAt var36 574)))
(assert (= ")" (CharAt var22 415)))
(assert (= "X" (CharAt var14 919)))
(assert (= "," (CharAt var46 462)))
(assert (= "Y" (CharAt var8 9)))
(assert (= "Q" (CharAt var35 489)))
(assert (= ")" (CharAt var22 464)))
(assert (= "b" (CharAt var43 163)))
(assert (= "E" (CharAt var1 618)))
(assert (= "|" (CharAt var29 808)))
(assert (= "u" (CharAt var44 194)))
(assert (= "1" (CharAt var47 333)))
(assert (= "b" (CharAt var15 183)))
(assert (= "A" (CharAt var18 771)))
(assert (= "u" (CharAt var0 241)))
(assert (= "\"" (CharAt var28 218)))
(assert (= "," (CharAt var26 372)))
(assert (= "e" (CharAt var5 504)))
(assert (= ">" (CharAt var31 774)))
(assert (= "T" (CharAt var26 429)))
(assert (= ":" (CharAt var7 508)))
(assert (= "`" (CharAt var29 347)))
(assert (= "\\" (CharAt var59 657)))
(assert (= "*" (CharAt var4 940)))
(assert (= "a" (CharAt var35 550)))
(assert (= "B" (CharAt var11 690)))
(assert (= "L" (CharAt var46 689)))
(assert (= "." (CharAt var9 355)))
(assert (= "2" (CharAt var3 623)))
(assert (= ")" (CharAt var49 480)))
(assert (= "N" (CharAt var59 596)))
(assert (= "p" (CharAt var47 572)))
(assert (= "," (CharAt var54 869)))
(assert (= ":" (CharAt var48 175)))
(assert (= "<" (CharAt var52 977)))
(assert (= "q" (CharAt var27 320)))
(assert (= "3" (CharAt var12 528)))
(assert (= "u" (CharAt var53 779)))
(assert (= "J" (CharAt var35 480)))
(assert (= "\\" (CharAt var13 256)))
(assert (= "W" (CharAt var58 487)))
(assert (= "7" (CharAt var35 749)))
(assert (= "Z" (CharAt var14 624)))
(assert (= "s" (CharAt var37 77)))
(assert (= "p" (CharAt var48 389)))
(assert (= "f" (CharAt var8 793)))
(assert (= "1" (CharAt var45 576)))
(assert (= "|" (CharAt var21 920)))
(assert (= "w" (CharAt var45 317)))
(assert (= "_" (CharAt var8 631)))
(assert (= "\"" (CharAt var13 23)))
(assert (= "5" (CharAt var32 321)))
(assert (= "8" (CharAt var43 802)))
(assert (= "+" (CharAt var23 885)))
(assert (= "}" (CharAt var54 770)))
(assert (= "A" (CharAt var46 914)))
(assert (= "w" (CharAt var8 937)))
(assert (= "c" (CharAt var9 410)))
(assert (= "D" (CharAt var44 609)))
(assert (= "T" (CharAt var13 238)))
(assert (= "+" (CharAt var47 44)))
(assert (= "w" (CharAt var13 889)))
(assert (= "b" (CharAt var21 343)))
(assert (= "~" (CharAt var30 519)))
(assert (= "=" (CharAt var45 559)))
(assert (= "k" (CharAt var0 90)))
(assert (= "+" (CharAt var0 940)))
(assert (= "'" (CharAt var48 19)))
(assert (= "*" (CharAt var52 175)))
(assert (= "h" (CharAt var45 604)))
(assert (= "W" (CharAt var57 304)))
(assert (= "x" (CharAt var11 360)))
(assert (= "P" (CharAt var6 175)))
(assert (= "W" (CharAt var33 660)))
(assert (= "D" (CharAt var23 472)))
(assert (= "!" (CharAt var30 258)))
(assert (= "$" (CharAt var41 22)))
(assert (= "e" (CharAt var4 846)))
(assert (= "7" (CharAt var36 744)))
(assert (= "k" (CharAt var52 745)))
(assert (= "s" (CharAt var53 444)))
(assert (= "p" (CharAt var16 291)))
(assert (= "/" (CharAt var34 341)))
(assert (= "R" (CharAt var4 429)))
(assert (= "A" (CharAt var12 844)))
(assert (= "N" (CharAt var47 886)))
(assert (= "2" (CharAt var1 306)))
(assert (= "S" (CharAt var59 632)))
(assert (= "i" (CharAt var17 687)))
(assert (= "." (CharAt var19 304)))
(assert (= "|" (CharAt var4 777)))
(assert (= "/" (CharAt var54 469)))
(assert (= "5" (CharAt var16 20)))
(assert (= "C" (CharAt var40 171)))
(assert (= "E" (CharAt var40 334)))
(assert (= "z" (CharAt var11 861)))
(assert (= "-" (CharAt var30 907)))
(assert (= ">" (CharAt var35 128)))
(assert (= "p" (CharAt var28 376)))
(assert (= ";" (CharAt var41 676)))
(assert (= "-" (CharAt var46 968)))
(assert (= "V" (CharAt var10 944)))
(assert (= "~" (CharAt var12 989)))
(assert (= "6" (CharAt var12 116)))
(assert (= "P" (CharAt var26 936)))
(assert (= "^" (CharAt var37 74)))
(assert (= "5" (CharAt var14 929)))
(assert (= "G" (CharAt var8 476)))
(assert (= "@" (CharAt var54 9)))
(assert (= "+" (CharAt var60 224)))
(assert (= "$" (CharAt var60 632)))
(assert (= "^" (CharAt var33 822)))
(assert (= "5" (CharAt var25 646)))
(assert (= "?" (CharAt var7 65)))
(assert (= "w" (CharAt var60 617)))
(assert (= "y" (CharAt var16 384)))
(assert (= "8" (CharAt var20 716)))
(assert (= "{" (CharAt var39 289)))
(assert (= "$" (CharAt var0 482)))
(assert (= "v" (CharAt var8 776)))
(assert (= "?" (CharAt var43 268)))
(assert (= "#" (CharAt var41 369)))
(assert (= "(" (CharAt var39 908)))
(assert (= "k" (CharAt var35 957)))
(assert (= "A" (CharAt var17 384)))
(assert (= "|" (CharAt var20 896)))
(assert (= "C" (CharAt var56 855)))
(assert (= ")" (CharAt var47 390)))
(assert (= "[" (CharAt var13 963)))
(assert (= "B" (CharAt var5 789)))
(assert (= "#" (CharAt var22 919)))
(assert (= "1" (CharAt var19 260)))
(assert (= ";" (CharAt var57 274)))
(assert (= "c" (CharAt var6 581)))
(assert (= "C" (CharAt var43 776)))
(assert (= "S" (CharAt var54 209)))
(assert (= "f" (CharAt var2 907)))
(assert (= "2" (CharAt var28 76)))
(assert (= "=" (CharAt var46 211)))
(assert (= "$" (CharAt var50 866)))
(assert (= "0" (CharAt var5 920)))
(assert (= "U" (CharAt var60 97)))
(assert (= "q" (CharAt var58 653)))
(assert (= "1" (CharAt var6 540)))
(assert (= "m" (CharAt var15 594)))
(assert (= "9" (CharAt var25 542)))
(assert (= "G" (CharAt var26 865)))
(assert (= "M" (CharAt var35 338)))
(assert (= "F" (CharAt var11 834)))
(assert (= "/" (CharAt var0 688)))
(assert (= "c" (CharAt var49 817)))
(assert (= "u" (CharAt var7 744)))
(assert (= "E" (CharAt var26 261)))
(assert (= "I" (CharAt var5 822)))
(assert (= "{" (CharAt var32 933)))
(assert (= "," (CharAt var20 942)))
(assert (= "J" (CharAt var33 820)))
(assert (= "5" (CharAt var39 838)))
(assert (= "D" (CharAt var28 428)))
(assert (= "o" (CharAt var35 351)))
(assert (= "I" (CharAt var8 516)))
(assert (= "F" (CharAt var22 486)))
(assert (= "k" (CharAt var47 929)))
(assert (= "l" (CharAt var27 575)))
(assert (= "B" (CharAt var8 473)))
(assert (= "l" (CharAt var57 826)))
(assert (= "U" (CharAt var58 667)))
(assert (= "7" (CharAt var42 638)))
(assert (= "=" (CharAt var9 636)))
(assert (= "E" (CharAt var43 85)))
(assert (= "K" (CharAt var54 924)))
(assert (= "=" (CharAt var5 388)))
(assert (= "U" (CharAt var28 578)))
(assert (= "U" (CharAt var60 716)))
(assert (= ">" (CharAt var17 671)))
(assert (= "2" (CharAt var26 690)))
(assert (= "e" (CharAt var15 412)))
(assert (= "t" (CharAt var0 609)))
(assert (= "q" (CharAt var53 872)))
(assert (= "{" (CharAt var43 719)))
(assert (= "S" (CharAt var19 363)))
(assert (= "H" (CharAt var41 885)))
(assert (= "h" (CharAt var53 992)))
(assert (= "y" (CharAt var20 525)))
(assert (= ":" (CharAt var6 888)))
(assert (= "i" (CharAt var44 314)))
(assert (= "+" (CharAt var23 516)))
(assert (= "p" (CharAt var33 561)))
(assert (= "K" (CharAt var56 541)))
(assert (= "\\" (CharAt var28 82)))
(assert (= "{" (CharAt var0 208)))
(assert (= "~" (CharAt var21 805)))
(assert (= "i" (CharAt var49 461)))
(assert (= "?" (CharAt var3 747)))
(assert (= "K" (CharAt var50 337)))
(assert (= "\"" (CharAt var53 487)))
(assert (= "j" (CharAt var48 325)))
(assert (= "0" (CharAt var5 684)))
(assert (= "!" (CharAt var58 525)))
(assert (= "U" (CharAt var53 446)))
(assert (= "6" (CharAt var31 860)))
(assert (= "r" (CharAt var54 780)))
(assert (= "H" (CharAt var20 104)))
(assert (= "p" (CharAt var0 523)))
(assert (= "Z" (CharAt var44 780)))
(assert (= "P" (CharAt var11 290)))
(assert (= "x" (CharAt var18 919)))
(assert (= "U" (CharAt var1 507)))
(assert (= "r" (CharAt var38 544)))
(assert (= "6" (CharAt var30 810)))
(assert (= "\\" (CharAt var23 958)))
(assert (= "8" (CharAt var23 270)))
(assert (= "H" (CharAt var16 175)))
(assert (= "[" (CharAt var27 98)))
(assert (= "T" (CharAt var51 549)))
(assert (= ")" (CharAt var18 659)))
(assert (= "k" (CharAt var26 73)))
(assert (= "3" (CharAt var48 446)))
(assert (= "1" (CharAt var11 556)))
(assert (= "u" (CharAt var5 786)))
(assert (= "_" (CharAt var14 170)))
(assert (= ";" (CharAt var8 154)))
(assert (= "=" (CharAt var45 259)))
(assert (= "9" (CharAt var4 965)))
(assert (= "v" (CharAt var29 701)))
(assert (= "I" (CharAt var33 891)))
(assert (= "T" (CharAt var1 663)))
(assert (= "^" (CharAt var48 313)))
(assert (= "-" (CharAt var39 763)))
(assert (= "N" (CharAt var52 14)))
(assert (= "|" (CharAt var27 578)))
(assert (= "v" (CharAt var27 700)))
(assert (= "M" (CharAt var49 175)))
(assert (= "A" (CharAt var8 536)))
(assert (= "2" (CharAt var37 98)))
(assert (= "3" (CharAt var18 193)))
(assert (= "v" (CharAt var7 438)))
(assert (= "%" (CharAt var13 854)))
(assert (= "e" (CharAt var41 37)))
(assert (= "i" (CharAt var53 258)))
(assert (= "p" (CharAt var48 64)))
(assert (= "p" (CharAt var4 921)))
(assert (= "*" (CharAt var2 21)))
(assert (= "#" (CharAt var54 86)))
(assert (= "&" (CharAt var40 512)))
(assert (= "O" (CharAt var24 99)))
(assert (= "7" (CharAt var46 891)))
(assert (= "U" (CharAt var12 5)))
(assert (= "d" (CharAt var46 866)))
(assert (= "3" (CharAt var21 26)))
(assert (= "B" (CharAt var54 904)))
(assert (= "Q" (CharAt var5 575)))
(assert (= "c" (CharAt var32 614)))
(assert (= "K" (CharAt var47 94)))
(assert (= "*" (CharAt var59 831)))
(assert (= "@" (CharAt var9 936)))
(assert (= "q" (CharAt var43 72)))
(assert (= "b" (CharAt var43 227)))
(assert (= "d" (CharAt var23 158)))
(assert (= "7" (CharAt var21 99)))
(assert (= "*" (CharAt var28 128)))
(assert (= "5" (CharAt var7 413)))
(assert (= "/" (CharAt var1 314)))
(assert (= "c" (CharAt var38 145)))
(assert (= "U" (CharAt var27 191)))
(assert (= "i" (CharAt var22 206)))
(assert (= "[" (CharAt var4 534)))
(assert (= "[" (CharAt var37 105)))
(assert (= "x" (CharAt var25 823)))
(assert (= "<" (CharAt var9 597)))
(assert (= "l" (CharAt var37 932)))
(assert (= "^" (CharAt var55 89)))
(assert (= "[" (CharAt var25 979)))
(assert (= "r" (CharAt var35 767)))
(assert (= "H" (CharAt var1 305)))
(assert (= "q" (CharAt var31 901)))
(assert (= "2" (CharAt var36 422)))
(assert (= "}" (CharAt var37 675)))
(assert (= "V" (CharAt var4 433)))
(assert (= "E" (CharAt var29 941)))
(assert (= "^" (CharAt var46 327)))
(assert (= "U" (CharAt var38 549)))
(assert (= "K" (CharAt var11 980)))
(assert (= "U" (CharAt var54 742)))
(assert (= "H" (CharAt var52 382)))
(assert (= "W" (CharAt var7 802)))
(assert (= "{" (CharAt var40 207)))
(assert (= ")" (CharAt var53 690)))
(assert (= "#" (CharAt var53 695)))
(assert (= "-" (CharAt var14 92)))
(assert (= "S" (CharAt var15 227)))
(assert (= "c" (CharAt var27 298)))
(assert (= "h" (CharAt var16 56)))
(assert (= "^" (CharAt var0 392)))
(assert (= "{" (CharAt var36 726)))
(assert (= "w" (CharAt var54 223)))
(assert (= "7" (CharAt var8 900)))
(assert (= ";" (CharAt var30 695)))
(assert (= "z" (CharAt var57 172)))
(assert (= "q" (CharAt var6 329)))
(assert (= "#" (CharAt var44 740)))
(assert (= "8" (CharAt var12 66)))
(assert (= "7" (CharAt var58 293)))
(assert (= "|" (CharAt var42 706)))
(assert (= "5" (CharAt var0 1)))
(assert (= "H" (CharAt var19 145)))
(assert (= "\"" (CharAt var43 159)))
(assert (= "R" (CharAt var56 259)))
(assert (= "%" (CharAt var35 486)))
(assert (= "l" (CharAt var54 829)))
(assert (= "T" (CharAt var59 138)))
(assert (= "[" (CharAt var30 707)))
(assert (= "C" (CharAt var32 62)))
(assert (= "$" (CharAt var0 483)))
(assert (= "}" (CharAt var51 509)))
(assert (= "D" (CharAt var23 784)))
(assert (= ")" (CharAt var18 605)))
(assert (= "E" (CharAt var10 697)))
(assert (= "s" (CharAt var2 74)))
(assert (= "N" (CharAt var44 250)))
(assert (= "z" (CharAt var31 267)))
(assert (= "t" (CharAt var48 27)))
(assert (= "Q" (CharAt var24 592)))
(assert (= "x" (CharAt var9 921)))
(assert (= "W" (CharAt var2 918)))
(assert (= "o" (CharAt var60 7)))
(assert (= "C" (CharAt var25 520)))
(assert (= "}" (CharAt var1 683)))
(assert (= "G" (CharAt var20 846)))
(assert (= "N" (CharAt var12 811)))
(assert (= "\\" (CharAt var10 803)))
(assert (= "k" (CharAt var35 175)))
(assert (= "W" (CharAt var32 493)))
(assert (= "6" (CharAt var44 775)))
(assert (= "u" (CharAt var4 368)))
(assert (= "|" (CharAt var51 796)))
(assert (= "R" (CharAt var53 181)))
(assert (= "C" (CharAt var40 600)))
(assert (= "k" (CharAt var22 698)))
(assert (= "1" (CharAt var59 401)))
(assert (= "L" (CharAt var51 384)))
(assert (= "Y" (CharAt var1 19)))
(assert (= "O" (CharAt var44 1)))
(assert (= "/" (CharAt var19 344)))
(assert (= "i" (CharAt var22 458)))
(check-sat)
(get-model)